experiment/data/hgs-res/Vrp-Set-P-n50/Vrp-Set-P-n50-hgs/0.hgs1.tour
Route #1: 6 22 42 41 43 23 16
Route #2: 33 1 28 2
Route #3: 29 5 47 48 30
Route #4: 21 36 37 20 15 13
Route #5: 4 45 27 46
Route #6: 34 8 19 14 7
Route #7: 10 38 11 35
Route #8: 17 40 12 26
Route #9: 49 24 18 25 31 39
Route #10: 3 44 32 9
Cost 699.562
